SAT
19 -51 17 52 100 99 -57 -35 61 -70 -44 -31 65 16 89 39 -40 -94 3 -77 -5 67 47 86 23 53 18 -82 -42 -36 62 -96 8 58 -37 27 34 -6 87 -95 -66 69 24 -28 -20 43 -55 -9 -64 98 93 30 -14 29 33 1 90 -71 59 83 -32 92 -81 49 74 50 -13 -15 73 7 76 -48 45 -26 78 88 -2 -54 97 10 79 -68 -63 85 72 12 -22 -91 60 56 -75 -80 -25 11 4 -38 41 -84 21 -46 0
